80 8
1608
2010
402
402
2010
804
1005
201
402
804
804
402
804
1206
1005
1809
1206
2010
1206
1407
2010
1407
1206
603
1206
804
1005
201
1005
804
603
1206
1206
804
1005
1407
1005
2010
1005
402
201
1206
1809
804
804
1809
1809
1407
1407
1608
603
603
402
1206
201
1407
402
402
2010
804
1809
603
1407
201
1809
1206
1809
1005
1809
1809
201
2010
2010
1206
1206
1206
804
1608
1206
804
12579
13058
17625
6249
17810
8064
12778
880
